
%FILE DATA:	Soccer Computational Problem for MiniZinc Models	%
%AUTHOR:	Jack Wall	%
%CONTACT:  	116397063@umail.ucc.ie			%
%LAST UPDATE:	02/24/2020, 18:49:01						%
%DESCRIPTION: 	35 games played with 7 games left				%


n=7; %number of teams

%Games to play
games=[|6,7|3,7|3,1|7,2|4,2|2,3|4,3|];

%Initial points
iPoints=[11,7,14,24,15,13,13];

%POSITION CONSTRAINTS
% [|teamID, operator, position|...]
% operators index:
%  1 for =  operator
%  2 for >  operator
%  3 for >= operator
%  4 for <  operator
%  5 for <= operator
positionConstraints=[|4,5,1|3,3,2|5,1,3|];